p cnf 
1 2 3 4 5 0
3 4 5 6 7 0
-1 -2 8 0
1 -8 0
2 -8 0
-3 -4 9 0
3 -9 0
4 -9 0
8 9 0
-1 -3 10 0
1 -10 0
3 -10 0
-3 -5 11 0
3 -11 0
5 -11 0
10 11 0
-1 -4 12 0
1 -12 0
4 -12 0
-3 -6 13 0
3 -13 0
6 -13 0
12 13 0
-3 -2 14 0
3 -14 0
2 -14 0
-5 -4 15 0
5 -15 0
4 -15 0
14 15 0
-3 -4 16 0
3 -16 0
4 -16 0
-5 -6 17 0
5 -17 0
6 -17 0
16 17 0
-4 -5 18 0
4 -18 0
5 -18 0
-6 -7 19 0
6 -19 0
7 -19 0
18 19 0
-4 -2 20 0
4 -20 0
2 -20 0
-6 -4 21 0
6 -21 0
4 -21 0
20 21 0
-5 -3 22 0
5 -22 0
3 -22 0
-7 -5 23 0
7 -23 0
5 -23 0
22 23 0
-1 3 24 0
1 -24 0
-3 -24 0
-2 4 25 0
2 -25 0
-4 -25 0
-3 5 26 0
3 -26 0
-5 -26 0
-4 6 27 0
4 -27 0
-6 -27 0
-5 7 28 0
5 -28 0
-7 -28 0
24 25 26 27 28 0
-3 1 29 0
3 -29 0
-1 -29 0
-4 2 30 0
4 -30 0
-2 -30 0
-5 3 31 0
5 -31 0
-3 -31 0
-6 4 32 0
6 -32 0
-4 -32 0
-7 5 33 0
7 -33 0
-5 -33 0
29 30 31 32 33 0
-1 -5 0
-3 -7 0
-2 -5 0
-4 -7 0
-5 -1 0
-7 -3 0
-5 -2 0
-7 -4 0
